db/inputs/86142283725238317898899148852292925337.smt2
(set-logic QF_FP)
(declare-const x0 (_ FloatingPoint 11 53))
(declare-const x1 (_ FloatingPoint 11 53))
(declare-const x2 (_ FloatingPoint 11 53))
(declare-const x3 (_ FloatingPoint 11 53))
(declare-const x4 (_ FloatingPoint 11 53))
(declare-const x5 (_ FloatingPoint 11 53))
(declare-const x6 (_ FloatingPoint 11 53))
(declare-const x7 (_ FloatingPoint 11 53))
(declare-const x8 (_ FloatingPoint 11 53))
(declare-const x9 (_ FloatingPoint 11 53))
(declare-const x10 (_ FloatingPoint 11 53))
(assert (fp.eq (fp.sub RNE (fp.sub RNE x4 x5) (fp.div RNE x4 x6)) (fp.add RNE (fp.div RNE x3 x3) (fp.neg x0))))
(assert (fp.leq (fp.neg (fp.div RNE x2 x6)) (fp.add RNE (fp.add RNE x9 x1) (fp.sub RNE x3 x5))))
(assert (fp.lt (fp.neg (fp.mul RNE x2 x9)) (fp.neg (fp.mul RNE x9 x9))))
(check-sat)
