db/data/86142283725238317898899148852292925337.z3.out
-------------------
2500.089510015
